rc101_3
0 95 70 87 104 57 62 88 56 25 27 29 54 24 23 53 26 28 30 82 91 79 63 80 102 64 92 14 18 20 21 22 52 19 17 15 16 2 83 78 84 12 13 51 50 10 8 9 7 11 65 58 103 93 60 105 75 46 44 43 42 40 41 45 48 49 47 6 1 73 66 86 59 77 76 98 101 99 72 67 55 39 36 34 32 31 33 35 37 38 68 90 89 100 61 69 71 96 97 85 0